problems/csplib-prob049/set_partition_simple-models/01_noch_lvlPruned/O0/minion/model_2_2-28-solution000001.eprime-solution
language ESSENCE' 1.0

letting setA_Explicit be [1, 2, 3, 5, 13, 14, 17, 18, 19, 20, 21, 22, 23, 25; int(1..14)]
letting setB_Explicit be [4, 6, 7, 8, 9, 10, 11, 12, 15, 16, 24, 26, 27, 28; int(1..14)]
