problems/csplib-prob049/set_partition_simple-models/noch/O0/minion/model_2_2-28-solution000001.solution
language Essence 1.3

letting setA be {1, 2, 3, 5, 13, 14, 17, 18, 19, 20, 21, 22, 23, 25}
letting setB be {4, 6, 7, 8, 9, 10, 11, 12, 15, 16, 24, 26, 27, 28}
